\ Model  -- The Multi Commodity Vehicle Transportation Problem -- 
\ LP format - for model browsing. Use MPS format to capture full model detail.
Minimize
  10 S1_D1_V - 2.307692307692308 S1_D1_c1 - 0.9433962264150944 S1_D1_c2
   + 15 S1_D2_V - 3.076923076923077 S1_D2_c1 - 3.396226415094339 S1_D2_c2
   + 20 S1_D3_V - 4.615384615384616 S1_D3_c1 - 5.660377358490566 S1_D3_c2
   + 18 S2_D1_V - 2.307692307692308 S2_D1_c1 - 0.9433962264150944 S2_D1_c2
   + 13 S2_D2_V - 3.076923076923077 S2_D2_c1 - 3.396226415094339 S2_D2_c2
   + 20 S2_D3_V - 4.615384615384616 S2_D3_c1 - 5.660377358490566 S2_D3_c2
   + 7.038538215041021 D1_c1_U + 7.038538215041021 D1_c2_U
   + 7.038538215041021 D2_c1_U + 7.038538215041021 D2_c2_U
   + 7.038538215041021 D3_c1_U + 7.038538215041021 D3_c2_U
   + 16475.32656023222 Constant
Subject To
 R0: S1_D1_c1 + S1_D2_c1 + S1_D3_c1 <= 540
 R1: S1_D1_c2 + S1_D2_c2 + S1_D3_c2 <= 300
 R2: S2_D1_c1 + S2_D2_c1 + S2_D3_c1 <= 640
 R3: S2_D1_c2 + S2_D2_c2 + S2_D3_c2 <= 400
 R4: S1_D1_c1 + S2_D1_c1 <= 300
 R5: S1_D1_c2 + S2_D1_c2 <= 250
 R6: S1_D2_c1 + S2_D2_c1 <= 400
 R7: S1_D2_c2 + S2_D2_c2 <= 900
 R8: S1_D3_c1 + S2_D3_c1 <= 600
 R9: S1_D3_c2 + S2_D3_c2 <= 1500
 R10: S1_D1_V + S1_D2_V + S1_D3_V <= 5
 R11: S2_D1_V + S2_D2_V + S2_D3_V <= 7
 R12: S1_D1_V - 0.00666666666666667 S1_D1_c1 - 0.00666666666666667 S1_D1_c2
   >= 0
 R13: S1_D2_V - 0.00666666666666667 S1_D2_c1 - 0.00666666666666667 S1_D2_c2
   >= 0
 R14: S1_D3_V - 0.00666666666666667 S1_D3_c1 - 0.00666666666666667 S1_D3_c2
   >= 0
 R15: S2_D1_V - 0.00666666666666667 S2_D1_c1 - 0.00666666666666667 S2_D1_c2
   >= 0
 R16: S2_D2_V - 0.00666666666666667 S2_D2_c1 - 0.00666666666666667 S2_D2_c2
   >= 0
 R17: S2_D3_V - 0.00666666666666667 S2_D3_c1 - 0.00666666666666667 S2_D3_c2
   >= 0
 R18: S1_D1_V - 0.00666666666666667 S1_D1_c1 - 0.00666666666666667 S1_D1_c2
   <= 1
 R19: S1_D2_V - 0.00666666666666667 S1_D2_c1 - 0.00666666666666667 S1_D2_c2
   <= 1
 R20: S1_D3_V - 0.00666666666666667 S1_D3_c1 - 0.00666666666666667 S1_D3_c2
   <= 1
 R21: S2_D1_V - 0.00666666666666667 S2_D1_c1 - 0.00666666666666667 S2_D1_c2
   <= 1
 R22: S2_D2_V - 0.00666666666666667 S2_D2_c1 - 0.00666666666666667 S2_D2_c2
   <= 1
 R23: S2_D3_V - 0.00666666666666667 S2_D3_c1 - 0.00666666666666667 S2_D3_c2
   <= 1
 R24: D1_c1_U <= 45
 R25: D1_c2_U <= 56
 R26: D2_c1_U <= 93
 R27: D2_c2_U <= 78
 R28: D3_c1_U <= 30
 R29: D3_c2_U <= 62
 R30: S1_D1_c1 + S2_D1_c1 + 4 D1_c1_U >= 180
 R31: S1_D1_c2 + S2_D1_c2 + 10 D1_c2_U >= 560
 R32: S1_D2_c1 + S2_D2_c1 + 4 D2_c1_U >= 372
 R33: S1_D2_c2 + S2_D2_c2 + 10 D2_c2_U >= 780
 R34: S1_D3_c1 + S2_D3_c1 + 4 D3_c1_U >= 120
 R35: S1_D3_c2 + S2_D3_c2 + 10 D3_c2_U >= 620
Bounds
 Constant = 1
Generals
 S1_D1_V S1_D1_c1 S1_D1_c2 S1_D2_V S1_D2_c1 S1_D2_c2 S1_D3_V S1_D3_c1
 S1_D3_c2 S2_D1_V S2_D1_c1 S2_D1_c2 S2_D2_V S2_D2_c1 S2_D2_c2 S2_D3_V
 S2_D3_c1 S2_D3_c2 D1_c1_U D1_c2_U D2_c1_U D2_c2_U D3_c1_U D3_c2_U
End
